 &control
    calculation = 'scf'
    verbosity='high'
    restart_mode='from_scratch',
    prefix='H2',
    tstress = .true.
    tprnfor = .true.
    pseudo_dir = '/global/home/users/jbneaton/test',
    outdir='/global/home/users/jbneaton/test'
 /
 &system
    ibrav=  1,
	celldm(1) =20,
	nat=  2,
	ntyp= 1,
    ecutwfc = 50
 /
 &electrons
    mixing_beta = 0.7
    conv_thr =  1.0d-8
 /
ATOMIC_SPECIES
 H  1.00794  H.pz-rrkjus_psl.1.0.0.UPF
ATOMIC_POSITIONS crystal
 H 0.00 0.00 0.00
 H 0.20 0.20 0.20
K_POINTS automatic
1 1 1 0 0 0
EOF
