&BANDS
 outdir='.',
 prefix='InP',
 filband='InPbands2.dat',
/
