&BANDS
 outdir='.',
 prefix='basic',
 filband='InPbands2.dat',
/
