&control
   prefix = 'InP'
   pseudo_dir = '/home1/06969/tg862689/pseudos/PBE/stringent/FR/'
   calculation = 'scf'
/
&system
   ecutwfc = 135.0
   ibrav = 0
   nat = 2
   ntyp = 2
   input_dft = 'pbe'
/
&electrons
   electron_maxstep = 100
   conv_thr = 1e-08
   mixing_mode = 'plain'
   mixing_beta = 0.7
   mixing_ndim = 8
   diagonalization = 'david'
   diago_david_ndim = 4
   diago_full_acc = .true.
/
CELL_PARAMETERS angstrom
   0.0 2.93435 2.93435
   2.93435 0.0 2.93435
   2.93435 2.93435 0.0
ATOMIC_SPECIES 
   In 114.818 'In.upf'
   P 30.973762 'P.upf'
ATOMIC_POSITIONS crystal
   P -0.125 -0.125 -0.125
   In 0.125 0.125 0.125
K_POINTS crystal
   22
   0.0 0.0 0.0 1.0
   0.0 0.0 0.166666667 4.0
   0.0 0.0 0.333333333 4.0
   0.0 0.0 0.5 4.0
   0.0 0.0 0.666666667 4.0
   0.0 0.0 0.833333333 4.0
   0.0 0.166666667 0.166666667 6.0
   0.0 0.166666667 0.333333333 12.0
   0.0 0.166666667 0.5 12.0
   0.0 0.166666667 0.666666667 12.0
   0.0 0.166666667 0.833333333 12.0
   0.0 0.333333333 0.333333333 6.0
   0.0 0.333333333 0.5 12.0
   0.0 0.333333333 0.666666667 12.0
   0.0 0.333333333 0.833333333 12.0
   0.0 0.5 0.5 3.0
   0.0 0.5 0.666666667 12.0
   0.0 0.5 0.833333333 12.0
   0.0 0.666666667 0.833333333 12.0
   0.166666667 0.333333333 0.5 24.0
   0.166666667 0.333333333 0.666666667 24.0
   0.166666667 0.5 0.666666667 12.0
